CLT05
Position Depot: Random
Horizon for Depot: Large
Position of customers: Cluster
Distribution of the demand: Small
Width of time windows: Tight
Distribution of the service: Small

VEHICLE 
NUMBER 	 CAPACITY 
 10 	 	 77 
 
CUSTOMER
CUST NO. 	 XCOORD.  	 YCOORD. 	 DEMAND 	 READY TIME 	 DUE DATE 	 SERVICE TIME 
 0 	 	 641 	 	 372 	 	 0 	 	 0 	 	 3062 	 	 0 
  1 	 	 983 	 	 316 	 	 5 	 	 2414 	 	 2556 	 	 92 
  2 	 	 412 	 	 481 	 	 9 	 	 439 	 	 520 	 	 87 
  3 	 	 946 	 	 963 	 	 7 	 	 1759 	 	 1811 	 	 94 
  4 	 	 136 	 	 642 	 	 7 	 	 2237 	 	 2425 	 	 62 
  5 	 	 241 	 	 554 	 	 8 	 	 399 	 	 483 	 	 54 
  6 	 	 918 	 	 409 	 	 9 	 	 1617 	 	 1792 	 	 88 
  7 	 	 950 	 	 367 	 	 9 	 	 2953 	 	 3029 	 	 51 
  8 	 	 192 	 	 683 	 	 10 	 	 2952 	 	 3062 	 	 78 
  9 	 	 246 	 	 566 	 	 6 	 	 1404 	 	 1580 	 	 96 
  10 	 	 917 	 	 467 	 	 6 	 	 1039 	 	 1183 	 	 86 
  11 	 	 897 	 	 271 	 	 9 	 	 950 	 	 1104 	 	 56 
  12 	 	 202 	 	 631 	 	 9 	 	 387 	 	 560 	 	 83 
  13 	 	 139 	 	 525 	 	 10 	 	 2711 	 	 2832 	 	 88 
  14 	 	 918 	 	 305 	 	 7 	 	 128 	 	 313 	 	 85 
  15 	 	 122 	 	 649 	 	 5 	 	 1055 	 	 1204 	 	 92 
  16 	 	 917 	 	 896 	 	 10 	 	 500 	 	 651 	 	 92 
  17 	 	 970 	 	 417 	 	 10 	 	 352 	 	 507 	 	 56 
  18 	 	 953 	 	 981 	 	 9 	 	 785 	 	 934 	 	 76 
  19 	 	 139 	 	 500 	 	 9 	 	 2007 	 	 2071 	 	 55 
  20 	 	 966 	 	 962 	 	 8 	 	 2642 	 	 2809 	 	 80 
  21 	 	 248 	 	 634 	 	 7 	 	 2950 	 	 3021 	 	 73 
  22 	 	 842 	 	 481 	 	 5 	 	 2366 	 	 2440 	 	 80 
  23 	 	 951 	 	 272 	 	 6 	 	 1860 	 	 2004 	 	 97 
  24 	 	 442 	 	 472 	 	 6 	 	 1656 	 	 1801 	 	 97 
  25 	 	 934 	 	 416 	 	 8 	 	 260 	 	 325 	 	 74 
  26 	 	 167 	 	 577 	 	 8 	 	 2124 	 	 2188 	 	 54 
  27 	 	 924 	 	 437 	 	 7 	 	 2195 	 	 2272 	 	 50 
  28 	 	 141 	 	 476 	 	 7 	 	 1004 	 	 1135 	 	 90 
  29 	 	 928 	 	 955 	 	 9 	 	 636 	 	 714 	 	 59 
  30 	 	 509 	 	 409 	 	 8 	 	 2707 	 	 2763 	 	 70 
  31 	 	 27 	 	 664 	 	 6 	 	 1048 	 	 1236 	 	 82 
  32 	 	 74 	 	 623 	 	 9 	 	 1306 	 	 1374 	 	 80 
  33 	 	 829 	 	 380 	 	 10 	 	 706 	 	 770 	 	 75 
  34 	 	 213 	 	 477 	 	 6 	 	 2414 	 	 2530 	 	 87 
  35 	 	 177 	 	 916 	 	 10 	 	 1307 	 	 1381 	 	 93 
  36 	 	 900 	 	 234 	 	 10 	 	 2267 	 	 2360 	 	 78 
  37 	 	 991 	 	 328 	 	 9 	 	 2604 	 	 2794 	 	 72 
  38 	 	 229 	 	 524 	 	 10 	 	 1092 	 	 1208 	 	 55 
  39 	 	 123 	 	 501 	 	 9 	 	 1322 	 	 1518 	 	 54 
  40 	 	 104 	 	 670 	 	 9 	 	 1982 	 	 2156 	 	 54 
  41 	 	 885 	 	 273 	 	 7 	 	 2072 	 	 2252 	 	 82 
  42 	 	 974 	 	 407 	 	 6 	 	 286 	 	 368 	 	 54 
  43 	 	 203 	 	 629 	 	 8 	 	 2926 	 	 3015 	 	 70 
  44 	 	 299 	 	 433 	 	 8 	 	 1254 	 	 1358 	 	 82 
  45 	 	 172 	 	 428 	 	 5 	 	 1502 	 	 1619 	 	 100 
  46 	 	 447 	 	 440 	 	 6 	 	 1487 	 	 1538 	 	 73 
  47 	 	 941 	 	 961 	 	 8 	 	 549 	 	 727 	 	 51 
  48 	 	 963 	 	 959 	 	 6 	 	 2225 	 	 2324 	 	 89 
  49 	 	 888 	 	 438 	 	 7 	 	 872 	 	 1010 	 	 94 
  50 	 	 979 	 	 310 	 	 10 	 	 2643 	 	 2721 	 	 93 
  51 	 	 341 	 	 528 	 	 10 	 	 2507 	 	 2621 	 	 75 
  52 	 	 162 	 	 632 	 	 10 	 	 601 	 	 782 	 	 71 
  53 	 	 912 	 	 343 	 	 6 	 	 1531 	 	 1675 	 	 76 
  54 	 	 294 	 	 496 	 	 10 	 	 1972 	 	 2041 	 	 100 
  55 	 	 896 	 	 285 	 	 9 	 	 1327 	 	 1475 	 	 100 
  56 	 	 970 	 	 526 	 	 8 	 	 2582 	 	 2675 	 	 68 
  57 	 	 962 	 	 963 	 	 8 	 	 807 	 	 951 	 	 52 
  58 	 	 994 	 	 284 	 	 8 	 	 546 	 	 714 	 	 65 
  59 	 	 242 	 	 659 	 	 7 	 	 970 	 	 1113 	 	 68 
  60 	 	 844 	 	 410 	 	 10 	 	 125 	 	 227 	 	 87 
  61 	 	 789 	 	 435 	 	 6 	 	 850 	 	 1045 	 	 87 
  62 	 	 221 	 	 666 	 	 8 	 	 1092 	 	 1270 	 	 74 
  63 	 	 233 	 	 545 	 	 5 	 	 1599 	 	 1714 	 	 54 
  64 	 	 335 	 	 533 	 	 8 	 	 1976 	 	 2132 	 	 71 
  65 	 	 944 	 	 310 	 	 8 	 	 2486 	 	 2598 	 	 99 
  66 	 	 309 	 	 693 	 	 8 	 	 734 	 	 818 	 	 63 
  67 	 	 408 	 	 492 	 	 8 	 	 201 	 	 288 	 	 76 
  68 	 	 101 	 	 565 	 	 6 	 	 2711 	 	 2785 	 	 60 
  69 	 	 409 	 	 436 	 	 8 	 	 1008 	 	 1111 	 	 84 
  70 	 	 254 	 	 576 	 	 9 	 	 802 	 	 966 	 	 74 
  71 	 	 93 	 	 643 	 	 5 	 	 1555 	 	 1615 	 	 51 
  72 	 	 206 	 	 657 	 	 9 	 	 478 	 	 572 	 	 90 
  73 	 	 927 	 	 298 	 	 8 	 	 2429 	 	 2510 	 	 52 
  74 	 	 408 	 	 508 	 	 7 	 	 1840 	 	 1910 	 	 96 
  75 	 	 275 	 	 529 	 	 8 	 	 2288 	 	 2347 	 	 74 
  76 	 	 939 	 	 920 	 	 10 	 	 562 	 	 686 	 	 100 
  77 	 	 855 	 	 212 	 	 7 	 	 2746 	 	 2881 	 	 75 
  78 	 	 988 	 	 312 	 	 8 	 	 1186 	 	 1332 	 	 73 
  79 	 	 910 	 	 441 	 	 5 	 	 2337 	 	 2499 	 	 91 
  80 	 	 275 	 	 516 	 	 10 	 	 825 	 	 957 	 	 54 
  81 	 	 417 	 	 714 	 	 6 	 	 2099 	 	 2216 	 	 67 
  82 	 	 954 	 	 978 	 	 5 	 	 2374 	 	 2484 	 	 99 
  83 	 	 199 	 	 587 	 	 10 	 	 958 	 	 1096 	 	 92 
  84 	 	 207 	 	 638 	 	 8 	 	 678 	 	 804 	 	 60 
  85 	 	 247 	 	 644 	 	 5 	 	 2126 	 	 2293 	 	 51 
  86 	 	 771 	 	 449 	 	 5 	 	 571 	 	 680 	 	 62 
  87 	 	 422 	 	 548 	 	 7 	 	 2358 	 	 2532 	 	 92 
  88 	 	 945 	 	 384 	 	 8 	 	 781 	 	 895 	 	 94 
  89 	 	 912 	 	 322 	 	 8 	 	 2733 	 	 2911 	 	 93 
  90 	 	 323 	 	 538 	 	 5 	 	 847 	 	 1015 	 	 77 
  91 	 	 958 	 	 299 	 	 6 	 	 2225 	 	 2388 	 	 88 
  92 	 	 132 	 	 554 	 	 5 	 	 2510 	 	 2560 	 	 57 
  93 	 	 255 	 	 565 	 	 7 	 	 1689 	 	 1785 	 	 79 
  94 	 	 878 	 	 606 	 	 6 	 	 2866 	 	 3062 	 	 90 
  95 	 	 438 	 	 543 	 	 10 	 	 1955 	 	 2017 	 	 74 
  96 	 	 929 	 	 928 	 	 7 	 	 2873 	 	 2990 	 	 63 
  97 	 	 952 	 	 397 	 	 6 	 	 966 	 	 1125 	 	 76 
  98 	 	 302 	 	 703 	 	 7 	 	 1130 	 	 1208 	 	 98 
  99 	 	 895 	 	 424 	 	 5 	 	 1277 	 	 1435 	 	 79 
  100 	 	 862 	 	 380 	 	 10 	 	 2809 	 	 2927 	 	 83 
 